52
2
2
3
18 2 3 4 5 6 7 8 9 10 12 13 14 16 17 19 22 23 51 
7 46 42 26 25 24 15 11 
10 47 45 43 42 29 28 27 26 24 15 
8 49 47 31 29 28 27 24 20 
8 46 45 42 32 30 26 24 15 
8 49 33 32 30 29 24 18 15 
6 46 43 29 24 21 15 
6 50 42 33 27 24 15 
8 47 46 42 39 33 32 30 25 
10 46 42 41 40 39 37 36 33 32 30 
10 48 47 45 40 39 37 36 34 32 30 
6 46 44 37 33 32 24 
7 45 42 40 39 36 32 26 
8 46 45 41 40 37 36 33 32 
9 44 41 40 39 38 37 36 35 34 
5 45 42 38 36 26 
4 43 33 29 27 
8 44 43 42 39 37 36 35 34 
7 46 41 39 38 36 34 32 
6 45 42 41 36 35 34 
5 48 42 38 37 32 
5 41 38 36 35 33 
4 47 43 33 32 
5 40 39 38 36 34 
3 41 40 29 
3 37 35 33 
3 44 34 32 
3 38 35 34 
2 36 34 
2 43 35 
2 38 37 
1 35
1 34
1 52
1 52
1 52
1 52
1 52
1 52
1 52
1 52
1 52
1 52
1 52
1 52
1 52
1 52
1 52
1 52
1 52
1 52
0 
0 0 0 0 0
0 0 0 0 0
0 0 0 0 0
4 9 0 0 4
5 0 1 0 2
7 6 0 4 0
1 0 3 6 0
5 0 3 5 0
8 0 3 4 0
2 0 3 0 6
3 0 2 4 0
5 0 2 3 0
1 0 5 0 7
3 0 4 6 0
9 3 0 0 5
6 0 4 7 0
7 5 0 6 0
10 5 0 0 2
2 7 0 0 10
3 0 4 0 5
7 0 3 0 5
6 0 6 9 0
8 7 0 6 0
10 0 4 6 0
4 7 0 9 0
5 0 7 7 0
7 0 7 0 6
3 0 9 6 0
4 7 0 6 0
6 0 7 0 3
3 0 2 0 8
9 4 0 6 0
10 0 1 6 0
8 0 6 8 0
9 7 0 0 5
10 4 0 0 5
4 8 0 8 0
7 4 0 7 0
10 4 0 0 7
5 0 6 0 4
6 4 0 1 0
9 3 0 1 0
1 9 0 0 8
1 0 3 0 8
3 7 0 4 0
6 5 0 0 1
7 3 0 2 0
10 3 0 1 0
1 0 8 0 5
3 4 0 0 5
5 4 0 4 0
1 9 0 5 0
5 0 4 0 8
6 5 0 4 0
3 0 5 8 0
5 0 4 0 6
9 0 3 0 6
3 0 6 8 0
5 1 0 6 0
9 0 4 6 0
1 0 9 0 10
4 3 0 0 6
4 3 0 3 0
4 4 0 5 0
6 0 4 5 0
10 0 3 0 6
2 5 0 9 0
3 4 0 5 0
9 0 2 0 3
4 0 3 10 0
7 3 0 7 0
10 0 3 5 0
1 9 0 7 0
2 0 5 6 0
9 7 0 0 3
5 6 0 0 7
9 6 0 0 6
10 0 3 5 0
2 9 0 0 7
4 5 0 6 0
8 5 0 0 3
2 0 6 0 5
6 0 6 0 4
10 2 0 2 0
3 7 0 11 0
4 7 0 10 0
5 0 9 10 0
1 0 6 6 0
1 4 0 0 3
6 2 0 5 0
4 5 0 0 9
7 0 4 0 9
8 4 0 1 0
2 0 8 7 0
6 0 8 0 5
10 0 7 3 0
1 9 0 4 0
1 8 0 0 9
4 0 2 2 0
3 5 0 8 0
4 4 0 0 6
7 0 5 7 0
7 5 0 0 6
7 0 6 7 0
9 0 6 0 5
2 0 8 0 8
4 1 0 3 0
8 1 0 2 0
2 0 7 0 9
3 5 0 0 7
3 0 3 7 0
2 7 0 0 8
3 5 0 0 8
8 4 0 4 0
1 3 0 9 0
3 0 7 8 0
9 3 0 0 4
1 0 8 0 9
3 5 0 8 0
10 0 2 0 5
3 7 0 0 7
6 0 4 7 0
9 0 2 5 0
2 0 5 0 7
4 0 5 6 0
8 0 4 0 4
5 0 4 2 0
6 8 0 2 0
10 8 0 1 0
1 5 0 0 6
2 5 0 0 5
8 5 0 3 0
1 0 5 0 5
7 4 0 4 0
8 0 3 4 0
4 8 0 0 7
5 4 0 6 0
9 2 0 0 2
4 0 6 6 0
5 0 4 5 0
6 0 4 0 6
3 7 0 0 6
7 6 0 0 3
10 0 2 4 0
4 5 0 2 0
7 2 0 2 0
8 0 5 2 0
1 0 9 9 0
2 2 0 8 0
5 0 8 8 0
6 0 9 7 0
7 4 0 0 4
8 0 6 0 3
0 0 0 0 0
0 0 0 0 0
0 0 0 0 0
28 27 162 130